(declare-const fee_bl Real)
(declare-const sin Real)
(declare-const p14_5 Real)
(declare-const income Real)
(declare-const special Real)
(declare-const p12_5 Real)
(declare-const p10_5 Real)
(assert (= p10_5 (* 0.105 (ite (> income 53463) 53463 income))))
(assert (= p12_5 (ite (> income 53463) (* 0.125 (- (ite (> income 152750) 152750 income) 53463)) 0)))
(assert (= p14_5 (ite (> income 152750) (* 0.145 (- income 152750)) 0)))
(assert (= special (ite (>= sin 900000000) 0 1)))
(assert (= fee_bl (* special (+ (+ p10_5 p12_5) p14_5))))